certificates/rado_a9_c21_N22.cnf
c Rad2 upper bound instance: x1 + 9*x2 - x3 = 21, interval [1,22]
p cnf 22 102
1 3 7 0
-1 -3 -7 0
1 4 16 0
-1 -4 -16 0
2 3 8 0
-2 -3 -8 0
2 4 17 0
-2 -4 -17 0
3 9 0
-3 -9 0
3 4 18 0
-3 -4 -18 0
1 2 4 0
-1 -2 -4 0
3 4 10 0
-3 -4 -10 0
4 19 0
-4 -19 0
2 5 0
-2 -5 0
3 5 11 0
-3 -5 -11 0
4 5 20 0
-4 -5 -20 0
2 3 6 0
-2 -3 -6 0
3 6 12 0
-3 -6 -12 0
4 6 21 0
-4 -6 -21 0
2 4 7 0
-2 -4 -7 0
3 7 13 0
-3 -7 -13 0
4 7 22 0
-4 -7 -22 0
2 5 8 0
-2 -5 -8 0
3 8 14 0
-3 -8 -14 0
2 6 9 0
-2 -6 -9 0
3 9 15 0
-3 -9 -15 0
2 7 10 0
-2 -7 -10 0
3 10 16 0
-3 -10 -16 0
2 8 11 0
-2 -8 -11 0
3 11 17 0
-3 -11 -17 0
2 9 12 0
-2 -9 -12 0
3 12 18 0
-3 -12 -18 0
1 13 0
-1 -13 0
2 10 13 0
-2 -10 -13 0
3 13 19 0
-3 -13 -19 0
1 2 14 0
-1 -2 -14 0
2 11 14 0
-2 -11 -14 0
3 14 20 0
-3 -14 -20 0
1 3 15 0
-1 -3 -15 0
2 12 15 0
-2 -12 -15 0
3 15 21 0
-3 -15 -21 0
2 13 16 0
-2 -13 -16 0
3 16 22 0
-3 -16 -22 0
1 5 17 0
-1 -5 -17 0
2 14 17 0
-2 -14 -17 0
1 6 18 0
-1 -6 -18 0
2 15 18 0
-2 -15 -18 0
1 7 19 0
-1 -7 -19 0
2 16 19 0
-2 -16 -19 0
1 8 20 0
-1 -8 -20 0
2 17 20 0
-2 -17 -20 0
1 9 21 0
-1 -9 -21 0
2 18 21 0
-2 -18 -21 0
1 10 22 0
-1 -10 -22 0
2 19 22 0
-2 -19 -22 0
