certificates/rado_a9_c21_N22.drat
4 2 0
d 4 17 2 0
-19 -22 0
-22 0
-4 0
2 0
19 0
7 0
-5 0
-16 0
-10 0
-1 0
20 0
17 0
3 0
0
